&PROJWFC
  prefix = 'BTO',
  outdir = './',
  ngauss = 0,
  degauss = 0.01,
/
